27      4       
10      10      10      10      
0       0       0       0       0       4       2       3       4       6       
10      2       0       0       2       3       5       10      12      
3       0       3       0       6       4       7       10      12      14      
4       6       0       1       0       4       7       10      12      14      
9       0       6       0       7       3       7       9       14      
6       0       2       0       6       2       8       13      
3       4       4       0       0       4       11      13      15      18      
3       0       3       9       0       2       10      18      
7       10      0       10      0       3       13      15      16      
5       7       0       0       5       2       11      15      
10      0       0       5       10      2       16      17      
7       0       0       4       4       2       17      18      
4       0       10      0       6       2       17      23      
1       0       2       0       5       2       16      19      
5       0       6       0       3       1       17      
1       0       7       3       0       3       20      21      23      
8       6       5       0       0       2       19      21      
8       4       0       2       0       2       20      23      
4       0       7       6       0       1       20      
3       3       4       0       0       2       22      26      
3       0       2       0       6       2       22      26      
5       0       8       0       2       1       24      
7       0       6       0       6       1       24      
1       4       0       0       3       1       25      
1       3       5       0       0       1       27      
7       6       0       0       4       1       27      
0       0       0       0       0       0       
